nApps = 225
nRes = 9
nActs = 446
nNetworks = 6

assignmentToResources = [1,3,1,3,3,2,3,2,3,2,2,2,2,1,2,1,2,2,1,2,1,1,1,2,2,3,3,2,1,1,3,1,3,1,1,1,1,1,2,3,3,1,2,2,2,2,2,2,2,2,2,1,2,2,2,2,2,2,2,2,2,3,3,3,2,2,2,1,1,3,2,1,2,1,1,2,3,3,3,1,3,2,2,3,3,3,1,2,2,3,2,1,3,1,3,2,3,1,1,1,4,6,6,6,6,4,4,4,4,4,6,6,6,6,6,6,5,6,6,6,6,6,6,5,5,5,5,5,5,5,5,5,5,5,5,5,4,4,5,5,4,5,5,4,4,4,4,4,4,4,4,4,4,4,5,5,6,5,4,4,4,4,4,4,4,4,4,6,6,6,6,6,6,6,4,4,4,4,4,4,4,4,4,4,4,5,6,6,6,6,6,6,4,4,5,5,5,5,5,5,5,5,5,5,5,5,5,5,5,5,5,5,5,5,5,5,5,5,6,6,6,5,5,5,5,5,4,4,4,4,4,4,5,6,6,6,6,4,6,6,5,6,4,5,5,6,4,4,4,4,4,6,4,4,5,7,6,8,4,8,4,9,6,8,5,7,6,8,5,9,6,7,6,7,4,8,5,9,6,8,5,7,6,8,5,7,4,9,6,8,5,7,8,8,8,8,8,8,9,9,8,9,7,8,8,7,7,8,7,7,8,8,7,7,8,7,7,7,9,7,7,7,7,7,7,7,9,7,8,9,7,9,9,9,9,8,9,9,8,8,8,8,8,9,8,8,9,9,8,7,9,8,8,9,9,8,9,8,9,7,8,8,8,7,8,7,9,8,8,9,9,8,8,9,8,8,8,9,8,7,8,8,8,8,8,9,9,7,9,7,7,7,7,9,7,9,7,7,7,7,7,9,7,7,9,9,9,7,7,7,7,7,8,7,9,9,9,9,9,8,9,8,8,8,9,7,7,8,7,8,7,7,9,7,9,7,9,8,8,9,8,8,9,7,9,9];

processingTimes = [80,160,96,160,152,88,104,104,128,160,120,64,136,88,128,160,120,56,128,144,88,80,112,104,112,80,104,168,128,152,64,56,104,104,64,160,128,120,56,72,136,160,88,104,112,152,48,104,128,104,120,120,152,48,104,128,152,160,120,64,96,136,160,112,136,160,136,48,168,144,48,160,128,128,88,160,48,48,48,120,96,112,80,112,80,112,48,128,160,144,96,104,104,128,96,96,56,128,136,64,4,3,500,4,4,13,13,13,26,4,500,5,4,5,5,4,5,500,500,3,3,13,13,4,4,500,5,4,4,500,500,500,8,4,4,5,8,23,4,3,3,100,5,4,4,3,3,4,4,4,500,5,3,4,3,3,3,500,13,13,4,13,4,4,500,13,4,9,4,500,4,3,3,3,3,4,3,500,13,13,13,5,5,5,500,500,500,500,9,5,100,4,4,4,3,4,3,23,500,8,8,3,500,4,4,5,5,500,3,13,500,500,3,500,500,23,500,4,4,4,3,500,4,13,13,3,3,3,3,4,8,3,5,3,500,3,3,4,4,200,5,8,3,3,3,4,3,3,3,4,4,500,3,3,5,5,4,4,4,4,13,13,3,3,16,16,3,3,4,4,4,4,4,4,8,8,3,3,500,500,500,500,4,4,3,3,3,3,4,4,7,7,4,3,500,4,4,13,13,13,26,4,500,5,4,5,5,4,5,500,500,3,3,13,13,4,4,500,5,4,4,500,500,500,8,4,4,5,8,23,4,3,3,100,5,4,4,3,3,4,4,4,500,5,3,4,3,3,3,500,13,13,4,13,4,4,500,13,4,9,4,500,4,3,3,3,3,4,3,500,13,13,13,5,5,5,500,500,500,500,9,5,100,4,4,4,3,4,3,23,500,8,8,3,500,4,4,5,5,500,3,13,500,500,3,500,500,23,500,4,4,4,3,500,4,13,13,3,3,3,3,4,8,3,5,3,500,3,3,4,4,200,5,8,3,3,3,4,3,3,3,4,4,500,3,3];

periods = [100000,100000,20000,100000,10000,100000,100000,10000,1000,20000,20000,10000,10000,20000,100000,10000,20000,10000,10000,1000,10000,20000,5000,10000,10000,100000,20000,100000,10000,10000,1000,1000,10000,20000,100000,10000,1000,100000,20000,100000,1000,2000,10000,10000,2000,20000,100000,10000,20000,10000,20000,10000,20000,10000,10000,10000,10000,100000,50000,20000,100000,20000,100000,10000,100000,20000,5000,20000,10000,10000,100000,20000,100000,20000,10000,20000,20000,10000,10000,10000,2000,100000,20000,20000,20000,10000,10000,100000,50000,100000,20000,50000,20000,50000,10000,1000,20000,10000,10000,2000,100000,100000,100000,100000,100000,20000,20000,20000,20000,20000,100000,100000,10000,10000,10000,10000,100000,100000,100000,1000,1000,1000,1000,20000,20000,20000,20000,20000,20000,20000,20000,10000,10000,10000,10000,10000,20000,10000,20000,10000,10000,1000,1000,10000,10000,10000,10000,10000,20000,20000,20000,5000,5000,5000,10000,10000,20000,100000,10000,10000,10000,10000,10000,10000,10000,10000,10000,1000,1000,10000,10000,10000,10000,10000,20000,20000,100000,10000,10000,10000,10000,100000,100000,100000,100000,20000,100000,100000,1000,1000,1000,1000,2000,2000,10000,10000,2000,20000,20000,20000,20000,100000,10000,10000,20000,10000,10000,20000,20000,20000,10000,10000,10000,10000,10000,10000,50000,100000,100000,100000,10000,20000,20000,20000,20000,5000,20000,10000,20000,20000,20000,20000,20000,20000,10000,10000,10000,10000,2000,2000,100000,10000,10000,50000,50000,100000,50000,50000,50000,50000,50000,10000,2000,2000,100000,100000,100000,100000,100000,100000,20000,20000,20000,20000,20000,20000,100000,100000,100000,100000,100000,100000,100000,100000,10000,10000,10000,10000,10000,10000,10000,10000,10000,10000,10000,10000,10000,10000,20000,20000,2000,2000,100000,100000,100000,100000,100000,20000,20000,20000,20000,20000,100000,100000,10000,10000,10000,10000,100000,100000,100000,1000,1000,1000,1000,20000,20000,20000,20000,20000,20000,20000,20000,10000,10000,10000,10000,10000,20000,10000,20000,10000,10000,1000,1000,10000,10000,10000,10000,10000,20000,20000,20000,5000,5000,5000,10000,10000,20000,100000,10000,10000,10000,10000,10000,10000,10000,10000,10000,1000,1000,10000,10000,10000,10000,10000,20000,20000,100000,10000,10000,10000,10000,100000,100000,100000,100000,20000,100000,100000,1000,1000,1000,1000,2000,2000,10000,10000,2000,20000,20000,20000,20000,100000,10000,10000,20000,10000,10000,20000,20000,20000,10000,10000,10000,10000,10000,10000,50000,100000,100000,100000,10000,20000,20000,20000,20000,5000,20000,10000,20000,20000,20000,20000,20000,20000,10000,10000,10000,10000,2000,2000,100000,10000,10000,50000,50000,100000,50000,50000,50000,50000,50000,10000,2000,2000];

assignmentToClusters = [1,2,3,4,5,6,7,8,9,10,11,12,13,14,6,15,16,17,18,19,20,21,22,23,24,6,3,25,26,27,28,29,30,31,32,23,33,6,34,6,35,36,37,38,36,39,40,41,42,43,44,8,3,24,45,46,47,25,48,49,50,34,1,23,51,52,53,54,24,24,1,55,6,3,56,34,57,58,59,60,61,62,63,57,3,24,23,1,64,6,65,66,57,67,8,68,57,69,70,71,72,73,74,75,76,77,78,79,80,81,82,83,84,85,86,87,88,89,90,91,92,93,94,95,96,97,98,99,100,101,102,103,104,105,106,107,108,109,110,111,112,113,114,115,116,117,118,119,120,121,122,123,124,125,126,127,128,129,130,131,132,133,134,135,136,137,138,139,140,141,142,143,144,145,146,147,148,149,150,151,152,153,154,155,156,157,158,159,160,161,162,163,164,165,166,167,168,169,170,171,172,173,174,175,176,177,178,179,180,181,182,183,184,185,186,187,188,189,190,191,192,193,194,195,196,197,198,199,200,201,202,203,204,205,206,207,208,209,210,211,212,213,214,215,216,217,218,219,220,221,222,223,224,225,1,1,1,1,1,1,3,3,3,3,3,3,6,6,6,6,6,6,6,6,8,8,8,8,23,23,23,23,24,24,24,24,24,24,34,34,36,36,72,73,74,75,76,77,78,79,80,81,82,83,84,85,86,87,88,89,90,91,92,93,94,95,96,97,98,99,100,101,102,103,104,105,106,107,108,109,110,111,112,113,114,115,116,117,118,119,120,121,122,123,124,125,126,127,128,129,130,131,132,133,134,135,136,137,138,139,140,141,142,143,144,145,146,147,148,149,150,151,152,153,154,155,156,157,158,159,160,161,162,163,164,165,166,167,168,169,170,171,172,173,174,175,176,177,178,179,180,181,182,183,184,185,186,187,188,189,190,191,192,193,194,195,196,197,198,199,200,201,202,203,204,205,206,207,208,209,210,211,212,213,214,215,216,217,218,219,220,221,222,223,224,225];

precedenceAdjList = [[255],[],[],[],[],[],[],[275],[],[],[],[],[],[],[5,267],[],[],[],[],[],[],[],[],[279],[53,283],[],[261],[],[],[],[],[],[],[],[],[86],[],[271,273],[75],[269],[],[291],[],[],[],[],[],[],[],[],[],[],[263],[],[],[],[],[27],[],[],[],[],[],[],[],[],[],[],[285],[],[257],[],[14],[265],[],[289],[83],[],[],[],[],[],[],[92],[26],[287],[281],[259],[],[],[],[],[],[],[277],[],[76],[],[],[],[],[],[],[],[],[],[],[],[],[],[],[],[],[],[],[],[],[],[],[],[],[],[],[],[],[],[],[],[],[],[],[],[],[],[],[],[],[],[],[],[],[],[],[],[],[],[],[],[],[],[],[],[],[],[],[],[],[],[],[],[],[],[],[],[],[],[],[],[],[],[],[],[],[],[],[],[],[],[],[],[],[],[],[],[],[],[],[],[],[],[],[],[],[],[],[],[],[],[],[],[],[],[],[],[],[],[],[],[],[],[],[],[],[],[],[],[],[],[],[],[],[],[],[],[],[],[],[],[],[],[],[],[],[],[],[],[],[],[],[],[],[],[],[],[],[],[],[],[],[],[],[],[],[],[70],[254],[62],[256],[0],[258],[2],[260],[26],[262],[52],[264],[25],[266],[14],[268],[89],[270],[39],[272],[51],[274],[7],[276],[63],[278],[23],[280],[69],[282],[24],[284],[68],[286],[61],[288],[44],[290],[100],[101],[102],[103],[104],[105],[106],[107],[108],[109],[110],[111],[112],[113],[114],[115],[116],[117],[118],[119],[120],[121],[122],[123],[124],[125],[126],[127],[128],[129],[130],[131],[132],[133],[134],[135],[136],[137],[138],[139],[140],[141],[142],[143],[144],[145],[146],[147],[148],[149],[150],[151],[152],[153],[154],[155],[156],[157],[158],[159],[160],[161],[162],[163],[164],[165],[166],[167],[168],[169],[170],[171],[172],[173],[174],[175],[176],[177],[178],[179],[180],[181],[182],[183],[184],[185],[186],[187],[188],[189],[190],[191],[192],[193],[194],[195],[196],[197],[198],[199],[200],[201],[202],[203],[204],[205],[206],[207],[208],[209],[210],[211],[212],[213],[214],[215],[216],[217],[218],[219],[220],[221],[222],[223],[224],[225],[226],[227],[228],[229],[230],[231],[232],[233],[234],[235],[236],[237],[238],[239],[240],[241],[242],[243],[244],[245],[246],[247],[248],[249],[250],[251],[252],[253]];